(set-info :smt-lib-version 2.6)
(set-logic QF_BV)
(set-info :source |
 Patrice Godefroid, SAGE (systematic dynamic test generation)
 For more information: http://research.microsoft.com/en-us/um/people/pg/public_psfiles/ndss2008.pdf
|)
(set-info :category "industrial")
(set-info :status unsat)
(declare-fun T4_31543 () (_ BitVec 32))
(declare-fun T1_31543 () (_ BitVec 8))
(declare-fun T1_31544 () (_ BitVec 8))
(declare-fun T1_31545 () (_ BitVec 8))
(declare-fun T1_31546 () (_ BitVec 8))
(assert (and true (= T4_31543 (bvor (bvshl (bvor (bvshl (bvor (bvshl ((_ zero_extend 24) T1_31546) (_ bv8 32)) ((_ zero_extend 24) T1_31545)) (_ bv8 32)) ((_ zero_extend 24) T1_31544)) (_ bv8 32)) ((_ zero_extend 24) T1_31543))) (bvsle T4_31543 (_ bv0 32)) (bvule T4_31543 (_ bv2147483647 32)) (not (= T4_31543 (_ bv0 32)))))
(check-sat)
(exit)
